30
raw_data/rcpsp/CV.xlsx cv30
Time limit set to 60 seconds
Running CP solver
/home/omastto1/General-Optimization-Solver/src/solvers/rcpsp.py:31(stream:48:6): Warning: Cumulative expression 'pulse': height is zero, expression is zero everywhere.
                                                                                            VarCumulAtom_97 = pulse("0", 0)
/home/omastto1/General-Optimization-Solver/src/solvers/rcpsp.py:31(stream:48:473): Warning: Cumulative expression 'pulse': height is zero, expression is zero everywhere.
                                                                                              VarCumulAtom_126 = pulse("29", 0)
/home/omastto1/General-Optimization-Solver/src/solvers/rcpsp.py:31(stream:49:6): Warning: Cumulative expression 'pulse': height is zero, expression is zero everywhere.
                                                                                            VarCumulAtom_130 = pulse("0", 0)
/home/omastto1/General-Optimization-Solver/src/solvers/rcpsp.py:31(stream:49:205): Warning: Cumulative expression 'pulse': height is zero, expression is zero everywhere.
                                                                                              VarCumulAtom_143 = pulse("13", 0)
/home/omastto1/General-Optimization-Solver/src/solvers/rcpsp.py:31(stream:49:317): Warning: Cumulative expression 'pulse': height is zero, expression is zero everywhere.
                                                                                              VarCumulAtom_150 = pulse("20", 0)
/home/omastto1/General-Optimization-Solver/src/solvers/rcpsp.py:31(stream:49:461): Warning: Cumulative expression 'pulse': height is zero, expression is zero everywhere.
                                                                                              VarCumulAtom_159 = pulse("29", 0)
 ! --------------------------------------------------- CP Optimizer 20.1.0.0 --
 ! Minimization problem - 31 variables, 151 constraints
 ! TimeLimit            = 60
 ! Workers              = 14
 ! LogVerbosity         = Terse
 ! Initial process time : 0.00s (0.00s extraction + 0.00s propagation)
 !  . Log search space  : 167.1 (before), 167.1 (after)
 !  . Memory usage      : 616.5 kB (before), 616.5 kB (after)
 ! Using parallel search with 14 workers.
 ! ----------------------------------------------------------------------------
 !          Best Branches  Non-fixed    W       Branch decision
                        0         31                 -
 + New bound is 22
 ! Using iterative diving.
 ! Using temporal relaxation.
 *            82       63  1.05s        1      (gap is 73.17%)
 *            80      272  1.05s        1      (gap is 72.50%)
 *            78      383  1.05s        1      (gap is 71.79%)
 *            73     1102  1.05s        1      (gap is 69.86%)
 *            71     4446  1.05s        1      (gap is 69.01%)
              71    12296          7    1   F        -
 + New bound is 58 (gap is 18.31%)
 ! Using failure-directed search.
 *            70    13331  1.05s        4      (gap is 17.14%)
 *            69     9392  1.05s        9      (gap is 15.94%)
              69    13329         27    1   F    60 >= cost
 + New bound is 59 (gap is 14.49%)
              69    13404         26    1   F    68 >= cost
 + New bound is 60 (gap is 13.04%)
              69    13464         26    1        61 >= cost
 + New bound is 61 (gap is 11.59%)
              69    13510         26    1   F    41 >= startOf(23)
 + New bound is 63 (gap is 8.70%)
              69    13770         15    1   F    65 >= cost
 + New bound is 64 (gap is 7.25%)
              69    15934          3    1   F    23 <= startOf(5)
 + New bound is 65 (gap is 5.80%)
              69    39359         12    1   F    52 <= startOf(24)
 + New bound is 68 (gap is 1.45%)
 *            68    42465  20.84s       1      (gap is 0.00%)
 ! ----------------------------------------------------------------------------
 ! Search completed, 8 solutions found.
 ! Best objective         : 68 (optimal - effective tol. is 0)
 ! Best bound             : 68
 ! ----------------------------------------------------------------------------
 ! Number of branches     : 3504357
 ! Number of fails        : 1023864
 ! Total memory usage     : 8.3 MB (8.2 MB CP Optimizer + 0.1 MB Concert)
 ! Time spent in solve    : 21.71s (21.71s engine + 0.00s extraction)
 ! Search speed (br. / s) : 161416.7
 ! ----------------------------------------------------------------------------
(68,)
(0,)
(68,)
Objective value: 68
Solution is 1.5 % worse than the lower bound.
Optimal solution found
